c description: There is a graph of 6 vertices with a 2-clique and a 10-coloring
c generator: CNFgen (0.9.0)
c copyright: (C) 2012-2020 Massimo Lauria <massimo.lauria@uniroma1.it>
c url: https://massimolauria.net/cnfgen
c
p cnf 87 494
-16 -17 0
-16 -18 0
-16 -19 0
-16 -20 0
-16 -21 0
-17 -18 0
-17 -19 0
-17 -20 0
-17 -21 0
-18 -19 0
-18 -20 0
-18 -21 0
-19 -20 0
-19 -21 0
-20 -21 0
16 17 18 19 20 21 0
-22 -23 0
-22 -24 0
-22 -25 0
-22 -26 0
-22 -27 0
-23 -24 0
-23 -25 0
-23 -26 0
-23 -27 0
-24 -25 0
-24 -26 0
-24 -27 0
-25 -26 0
-25 -27 0
-26 -27 0
22 23 24 25 26 27 0
-16 -22 0
-17 -23 0
-18 -24 0
-19 -25 0
-20 -26 0
-21 -27 0
1 -16 -23 0
1 -22 -17 0
2 -16 -24 0
2 -22 -18 0
3 -16 -25 0
3 -22 -19 0
4 -16 -26 0
4 -22 -20 0
5 -16 -27 0
5 -22 -21 0
6 -17 -24 0
6 -23 -18 0
7 -17 -25 0
7 -23 -19 0
8 -17 -26 0
8 -23 -20 0
9 -17 -27 0
9 -23 -21 0
10 -18 -25 0
10 -24 -19 0
11 -18 -26 0
11 -24 -20 0
12 -18 -27 0
12 -24 -21 0
13 -19 -26 0
13 -25 -20 0
14 -19 -27 0
14 -25 -21 0
15 -20 -27 0
15 -26 -21 0
-28 -29 0
-28 -30 0
-28 -31 0
-28 -32 0
-28 -33 0
-28 -34 0
-28 -35 0
-28 -36 0
-28 -37 0
-29 -30 0
-29 -31 0
-29 -32 0
-29 -33 0
-29 -34 0
-29 -35 0
-29 -36 0
-29 -37 0
-30 -31 0
-30 -32 0
-30 -33 0
-30 -34 0
-30 -35 0
-30 -36 0
-30 -37 0
-31 -32 0
-31 -33 0
-31 -34 0
-31 -35 0
-31 -36 0
-31 -37 0
-32 -33 0
-32 -34 0
-32 -35 0
-32 -36 0
-32 -37 0
-33 -34 0
-33 -35 0
-33 -36 0
-33 -37 0
-34 -35 0
-34 -36 0
-34 -37 0
-35 -36 0
-35 -37 0
-36 -37 0
28 29 30 31 32 33 34 35 36 37 0
-38 -39 0
-38 -40 0
-38 -41 0
-38 -42 0
-38 -43 0
-38 -44 0
-38 -45 0
-38 -46 0
-38 -47 0
-39 -40 0
-39 -41 0
-39 -42 0
-39 -43 0
-39 -44 0
-39 -45 0
-39 -46 0
-39 -47 0
-40 -41 0
-40 -42 0
-40 -43 0
-40 -44 0
-40 -45 0
-40 -46 0
-40 -47 0
-41 -42 0
-41 -43 0
-41 -44 0
-41 -45 0
-41 -46 0
-41 -47 0
-42 -43 0
-42 -44 0
-42 -45 0
-42 -46 0
-42 -47 0
-43 -44 0
-43 -45 0
-43 -46 0
-43 -47 0
-44 -45 0
-44 -46 0
-44 -47 0
-45 -46 0
-45 -47 0
-46 -47 0
38 39 40 41 42 43 44 45 46 47 0
-48 -49 0
-48 -50 0
-48 -51 0
-48 -52 0
-48 -53 0
-48 -54 0
-48 -55 0
-48 -56 0
-48 -57 0
-49 -50 0
-49 -51 0
-49 -52 0
-49 -53 0
-49 -54 0
-49 -55 0
-49 -56 0
-49 -57 0
-50 -51 0
-50 -52 0
-50 -53 0
-50 -54 0
-50 -55 0
-50 -56 0
-50 -57 0
-51 -52 0
-51 -53 0
-51 -54 0
-51 -55 0
-51 -56 0
-51 -57 0
-52 -53 0
-52 -54 0
-52 -55 0
-52 -56 0
-52 -57 0
-53 -54 0
-53 -55 0
-53 -56 0
-53 -57 0
-54 -55 0
-54 -56 0
-54 -57 0
-55 -56 0
-55 -57 0
-56 -57 0
48 49 50 51 52 53 54 55 56 57 0
-58 -59 0
-58 -60 0
-58 -61 0
-58 -62 0
-58 -63 0
-58 -64 0
-58 -65 0
-58 -66 0
-58 -67 0
-59 -60 0
-59 -61 0
-59 -62 0
-59 -63 0
-59 -64 0
-59 -65 0
-59 -66 0
-59 -67 0
-60 -61 0
-60 -62 0
-60 -63 0
-60 -64 0
-60 -65 0
-60 -66 0
-60 -67 0
-61 -62 0
-61 -63 0
-61 -64 0
-61 -65 0
-61 -66 0
-61 -67 0
-62 -63 0
-62 -64 0
-62 -65 0
-62 -66 0
-62 -67 0
-63 -64 0
-63 -65 0
-63 -66 0
-63 -67 0
-64 -65 0
-64 -66 0
-64 -67 0
-65 -66 0
-65 -67 0
-66 -67 0
58 59 60 61 62 63 64 65 66 67 0
-68 -69 0
-68 -70 0
-68 -71 0
-68 -72 0
-68 -73 0
-68 -74 0
-68 -75 0
-68 -76 0
-68 -77 0
-69 -70 0
-69 -71 0
-69 -72 0
-69 -73 0
-69 -74 0
-69 -75 0
-69 -76 0
-69 -77 0
-70 -71 0
-70 -72 0
-70 -73 0
-70 -74 0
-70 -75 0
-70 -76 0
-70 -77 0
-71 -72 0
-71 -73 0
-71 -74 0
-71 -75 0
-71 -76 0
-71 -77 0
-72 -73 0
-72 -74 0
-72 -75 0
-72 -76 0
-72 -77 0
-73 -74 0
-73 -75 0
-73 -76 0
-73 -77 0
-74 -75 0
-74 -76 0
-74 -77 0
-75 -76 0
-75 -77 0
-76 -77 0
68 69 70 71 72 73 74 75 76 77 0
-78 -79 0
-78 -80 0
-78 -81 0
-78 -82 0
-78 -83 0
-78 -84 0
-78 -85 0
-78 -86 0
-78 -87 0
-79 -80 0
-79 -81 0
-79 -82 0
-79 -83 0
-79 -84 0
-79 -85 0
-79 -86 0
-79 -87 0
-80 -81 0
-80 -82 0
-80 -83 0
-80 -84 0
-80 -85 0
-80 -86 0
-80 -87 0
-81 -82 0
-81 -83 0
-81 -84 0
-81 -85 0
-81 -86 0
-81 -87 0
-82 -83 0
-82 -84 0
-82 -85 0
-82 -86 0
-82 -87 0
-83 -84 0
-83 -85 0
-83 -86 0
-83 -87 0
-84 -85 0
-84 -86 0
-84 -87 0
-85 -86 0
-85 -87 0
-86 -87 0
78 79 80 81 82 83 84 85 86 87 0
-1 -28 -38 0
-1 -29 -39 0
-1 -30 -40 0
-1 -31 -41 0
-1 -32 -42 0
-1 -33 -43 0
-1 -34 -44 0
-1 -35 -45 0
-1 -36 -46 0
-1 -37 -47 0
-2 -28 -48 0
-2 -29 -49 0
-2 -30 -50 0
-2 -31 -51 0
-2 -32 -52 0
-2 -33 -53 0
-2 -34 -54 0
-2 -35 -55 0
-2 -36 -56 0
-2 -37 -57 0
-3 -28 -58 0
-3 -29 -59 0
-3 -30 -60 0
-3 -31 -61 0
-3 -32 -62 0
-3 -33 -63 0
-3 -34 -64 0
-3 -35 -65 0
-3 -36 -66 0
-3 -37 -67 0
-4 -28 -68 0
-4 -29 -69 0
-4 -30 -70 0
-4 -31 -71 0
-4 -32 -72 0
-4 -33 -73 0
-4 -34 -74 0
-4 -35 -75 0
-4 -36 -76 0
-4 -37 -77 0
-5 -28 -78 0
-5 -29 -79 0
-5 -30 -80 0
-5 -31 -81 0
-5 -32 -82 0
-5 -33 -83 0
-5 -34 -84 0
-5 -35 -85 0
-5 -36 -86 0
-5 -37 -87 0
-6 -38 -48 0
-6 -39 -49 0
-6 -40 -50 0
-6 -41 -51 0
-6 -42 -52 0
-6 -43 -53 0
-6 -44 -54 0
-6 -45 -55 0
-6 -46 -56 0
-6 -47 -57 0
-7 -38 -58 0
-7 -39 -59 0
-7 -40 -60 0
-7 -41 -61 0
-7 -42 -62 0
-7 -43 -63 0
-7 -44 -64 0
-7 -45 -65 0
-7 -46 -66 0
-7 -47 -67 0
-8 -38 -68 0
-8 -39 -69 0
-8 -40 -70 0
-8 -41 -71 0
-8 -42 -72 0
-8 -43 -73 0
-8 -44 -74 0
-8 -45 -75 0
-8 -46 -76 0
-8 -47 -77 0
-9 -38 -78 0
-9 -39 -79 0
-9 -40 -80 0
-9 -41 -81 0
-9 -42 -82 0
-9 -43 -83 0
-9 -44 -84 0
-9 -45 -85 0
-9 -46 -86 0
-9 -47 -87 0
-10 -48 -58 0
-10 -49 -59 0
-10 -50 -60 0
-10 -51 -61 0
-10 -52 -62 0
-10 -53 -63 0
-10 -54 -64 0
-10 -55 -65 0
-10 -56 -66 0
-10 -57 -67 0
-11 -48 -68 0
-11 -49 -69 0
-11 -50 -70 0
-11 -51 -71 0
-11 -52 -72 0
-11 -53 -73 0
-11 -54 -74 0
-11 -55 -75 0
-11 -56 -76 0
-11 -57 -77 0
-12 -48 -78 0
-12 -49 -79 0
-12 -50 -80 0
-12 -51 -81 0
-12 -52 -82 0
-12 -53 -83 0
-12 -54 -84 0
-12 -55 -85 0
-12 -56 -86 0
-12 -57 -87 0
-13 -58 -68 0
-13 -59 -69 0
-13 -60 -70 0
-13 -61 -71 0
-13 -62 -72 0
-13 -63 -73 0
-13 -64 -74 0
-13 -65 -75 0
-13 -66 -76 0
-13 -67 -77 0
-14 -58 -78 0
-14 -59 -79 0
-14 -60 -80 0
-14 -61 -81 0
-14 -62 -82 0
-14 -63 -83 0
-14 -64 -84 0
-14 -65 -85 0
-14 -66 -86 0
-14 -67 -87 0
-15 -68 -78 0
-15 -69 -79 0
-15 -70 -80 0
-15 -71 -81 0
-15 -72 -82 0
-15 -73 -83 0
-15 -74 -84 0
-15 -75 -85 0
-15 -76 -86 0
-15 -77 -87 0